TOUR_SECTION
1
48
53
198
57
157
188
90
104
197
154
142
91
67
10
41
187
132
145
124
147
144
162
61
47
141
98
134
50
201
32
25
110
101
150
170
97
192
136
22
155
99
96
128
165
54
73
196
55
191
14
194
68
94
123
33
182
129
95
23
112
111
92
64
28
93
12
133
59
109
116
18
31
164
16
120
84
69
139
36
138
179
190
85
158
30
106
117
143
29
38
13
167
169
127
4
89
35
3
121
122
161
49
168
24
130
78
7
119
70
174
146
87
21
181
108
135
44
51
151
77
52
88
62
19
37
172
45
131
74
80
200
180
193
189
42
40
195
102
8
79
184
72
186
140
149
81
82
56
125
175
166
63
173
163
11
176
6
76
9
107
86
65
5
105
103
177
152
100
113
126
183
75
27
66
15
137
156
199
114
60
171
43
39
71
17
148
34
115
2
159
83
160
58
118
20
153
178
46
26
185
-1
EOF